NAME : random_5
COMMENT : 40 random nodes
TYPE : TSP
DIMENSION : 40
EDGE_WEIGHT_TYPE : EUC_2D
NODE_COORD_SECTION
1 874 567
2 175 892
3 230 628
4 163 871
5 65 286
6 671 555
7 883 303
8 461 481
9 645 934
10 373 129
11 690 770
12 908 543
13 342 694
14 256 154
15 760 174
16 325 524
17 424 72
18 403 759
19 247 693
20 260 609
21 527 894
22 691 370
23 990 881
24 998 552
25 50 17
26 466 743
27 826 252
28 697 743
29 464 719
30 158 761
31 70 779
32 215 359
33 634 996
34 819 361
35 970 233
36 542 565
37 437 554
38 87 192
39 124 636
40 655 291
EOF